set VV := 0 1 2 3 4 5 6 7 8 9 10 11 12 13 14 15 16 17 18 19 20 21 22 23 24 25 26 27 28 29 30 31 32 33 34 35 36 37 ;
set VS := 0 1 2 3 4 5 6 7 8 9 10 11 12 13 14 15 16 17 18 19 20 21 22 23 24 25 26 27 28 29 30 31 32 33 34 35 36 37 38 39 40 41 42 43 44 45 46 47 48 49 50 51 52 53 54 55 56 57 58 59 60 61 62 63 64 65 66 67 68 69 70 71 72 73 74 75 76 77 78 79 ;
param cv := 
0 21
1 24
2 15
3 18
4 24
5 16
6 17
7 19
8 20
9 11
10 17
11 12
12 16
13 19
14 23
15 18
16 15
17 19
18 18
19 15
20 24
21 19
22 14
23 23
24 17
25 16
26 11
27 18
28 15
29 17
30 21
31 17
32 18
33 24
34 15
35 20
36 16
37 11
;
param cs := 
0 31
1 38
2 24
3 33
4 33
5 32
6 24
7 23
8 27
9 20
10 24
11 39
12 33
13 24
14 27
15 31
16 35
17 37
18 20
19 27
20 39
21 38
22 20
23 32
24 31
25 30
26 23
27 30
28 27
29 34
30 29
31 24
32 40
33 20
34 22
35 33
36 24
37 35
38 38
39 25
40 31
41 21
42 37
43 32
44 38
45 23
46 29
47 33
48 39
49 22
50 22
51 22
52 37
53 28
54 31
55 33
56 29
57 33
58 35
59 32
60 27
61 39
62 39
63 30
64 27
65 32
66 24
67 38
68 29
69 34
70 37
71 24
72 24
73 29
74 28
75 20
76 25
77 33
78 23
79 39
;
param bv:	 0 1 2 3 4 5 6 7 8 9 10 11 12 13 14 15 16 17 18 19 20 21 22 23 24 25 26 27 28 29 30 31 32 33 34 35 36 37 := 
		0 0 0 17 0 17 0 0 0 0 0 0 0 0 0 0 24 0 0 13 0 0 11 0 0 0 0 0 0 0 0 0 0 0 0 0 0 0 0 
		1 0 0 0 19 0 0 0 0 0 0 0 17 0 11 0 0 0 0 0 17 0 0 0 0 0 12 0 15 0 0 0 0 0 0 0 0 0 0 
		2 0 0 0 0 0 15 10 0 12 25 0 0 0 0 0 0 0 0 0 0 0 0 0 18 0 0 10 0 0 0 0 0 0 0 0 0 0 0 
		3 0 0 0 0 24 0 0 0 0 20 0 0 0 14 0 0 0 0 0 0 0 0 0 22 0 0 0 0 0 0 20 0 0 0 0 0 0 0 
		4 0 0 0 0 0 0 0 0 0 0 0 0 23 0 0 0 25 0 0 0 0 0 0 0 13 20 0 0 0 0 0 0 15 0 0 0 0 0 
		5 0 0 0 0 0 0 0 0 0 0 0 0 18 0 0 0 11 0 0 0 20 21 0 0 0 0 0 0 0 0 0 0 0 0 13 0 0 0 
		6 0 0 0 0 0 0 0 0 0 0 0 0 0 0 0 0 23 0 0 0 0 0 0 0 0 22 0 0 0 0 0 0 0 0 0 0 0 11 
		7 0 0 0 0 0 0 0 0 0 0 0 0 0 0 0 0 0 0 0 0 0 0 0 0 17 0 0 0 0 0 0 0 0 15 0 0 0 0 
		8 0 0 0 0 0 0 0 0 0 0 0 0 0 0 0 0 0 0 0 0 0 0 0 0 0 0 0 0 0 17 24 0 0 0 0 0 0 0 
		9 0 0 0 0 0 0 0 0 0 0 0 0 0 0 13 0 0 0 0 0 0 23 0 0 0 0 0 0 0 0 0 0 0 0 0 0 15 0 
		10 0 0 0 0 0 0 0 0 0 0 0 0 22 0 0 0 0 0 0 0 0 0 0 0 0 0 0 0 0 0 0 0 0 0 0 0 0 0 
		11 0 0 0 0 0 0 0 0 0 0 0 0 19 0 21 0 0 0 0 0 0 0 0 0 0 0 0 0 0 0 0 15 0 0 0 0 0 0 
		12 0 0 0 0 0 0 0 0 0 0 0 0 0 0 0 0 0 0 0 0 0 0 0 0 0 0 0 0 0 0 0 0 0 0 0 0 0 0 
		13 0 0 0 0 0 0 0 0 0 0 0 0 0 0 17 0 0 0 0 0 0 12 0 0 0 0 0 0 0 0 0 0 0 0 0 0 0 0 
		14 0 0 0 0 0 0 0 0 0 0 0 0 0 0 0 0 0 0 0 22 0 0 0 0 0 0 0 0 0 0 0 0 0 0 0 0 15 0 
		15 0 0 0 0 0 0 0 0 0 0 0 0 0 0 0 0 0 0 0 0 0 13 0 0 0 0 0 0 0 0 0 0 0 0 0 0 0 0 
		16 0 0 0 0 0 0 0 0 0 0 0 0 0 0 0 0 0 0 0 0 13 0 0 0 0 0 0 0 0 0 0 23 0 0 0 15 0 0 
		17 0 0 0 0 0 0 0 0 0 0 0 0 0 0 0 0 0 0 24 0 0 0 0 0 0 0 0 0 0 0 0 0 0 0 0 16 0 20 
		18 0 0 0 0 0 0 0 0 0 0 0 0 0 0 0 0 0 0 0 0 0 0 0 0 0 0 0 0 0 0 0 0 0 0 0 0 0 0 
		19 0 0 0 0 0 0 0 0 0 0 0 0 0 0 0 0 0 0 0 0 0 0 0 0 0 0 0 0 0 0 0 0 0 0 0 0 0 0 
		20 0 0 0 0 0 0 0 0 0 0 0 0 0 0 0 0 0 0 0 0 0 0 0 15 0 0 0 0 0 21 0 0 15 0 0 16 0 0 
		21 0 0 0 0 0 0 0 0 0 0 0 0 0 0 0 0 0 0 0 0 0 0 23 0 0 0 0 0 0 21 0 0 0 0 0 0 0 0 
		22 0 0 0 0 0 0 0 0 0 0 0 0 0 0 0 0 0 0 0 0 0 0 0 0 0 0 0 0 0 25 0 0 0 0 0 0 0 0 
		23 0 0 0 0 0 0 0 0 0 0 0 0 0 0 0 0 0 0 0 0 0 0 0 0 0 0 0 0 0 10 19 0 0 11 0 12 0 0 
		24 0 0 0 0 0 0 0 0 0 0 0 0 0 0 0 0 0 0 0 0 0 0 0 0 0 0 0 0 15 0 0 0 0 0 0 0 0 0 
		25 0 0 0 0 0 0 0 0 0 0 0 0 0 0 0 0 0 0 0 0 0 0 0 0 0 0 0 25 0 0 0 0 0 0 0 0 18 0 
		26 0 0 0 0 0 0 0 0 0 0 0 0 0 0 0 0 0 0 0 0 0 0 0 0 0 0 0 0 0 0 0 0 0 0 0 0 0 0 
		27 0 0 0 0 0 0 0 0 0 0 0 0 0 0 0 0 0 0 0 0 0 0 0 0 0 0 0 0 0 0 0 0 0 0 0 0 11 0 
		28 0 0 0 0 0 0 0 0 0 0 0 0 0 0 0 0 0 0 0 0 0 0 0 0 0 0 0 0 0 18 0 0 0 0 0 0 0 0 
		29 0 0 0 0 0 0 0 0 0 0 0 0 0 0 0 0 0 0 0 0 0 0 0 0 0 0 0 0 0 0 12 0 0 12 0 0 0 0 
		30 0 0 0 0 0 0 0 0 0 0 0 0 0 0 0 0 0 0 0 0 0 0 0 0 0 0 0 0 0 0 0 0 0 20 0 0 0 0 
		31 0 0 0 0 0 0 0 0 0 0 0 0 0 0 0 0 0 0 0 0 0 0 0 0 0 0 0 0 0 0 0 0 19 0 0 0 0 0 
		32 0 0 0 0 0 0 0 0 0 0 0 0 0 0 0 0 0 0 0 0 0 0 0 0 0 0 0 0 0 0 0 0 0 0 21 0 0 0 
		33 0 0 0 0 0 0 0 0 0 0 0 0 0 0 0 0 0 0 0 0 0 0 0 0 0 0 0 0 0 0 0 0 0 0 0 0 0 0 
		34 0 0 0 0 0 0 0 0 0 0 0 0 0 0 0 0 0 0 0 0 0 0 0 0 0 0 0 0 0 0 0 0 0 0 0 12 22 0 
		35 0 0 0 0 0 0 0 0 0 0 0 0 0 0 0 0 0 0 0 0 0 0 0 0 0 0 0 0 0 0 0 0 0 0 0 0 22 0 
		36 0 0 0 0 0 0 0 0 0 0 0 0 0 0 0 0 0 0 0 0 0 0 0 0 0 0 0 0 0 0 0 0 0 0 0 0 0 0 
		37 0 0 0 0 0 0 0 0 0 0 0 0 0 0 0 0 0 0 0 0 0 0 0 0 0 0 0 0 0 0 0 0 0 0 0 0 0 0 
;
param bs:	 0 1 2 3 4 5 6 7 8 9 10 11 12 13 14 15 16 17 18 19 20 21 22 23 24 25 26 27 28 29 30 31 32 33 34 35 36 37 38 39 40 41 42 43 44 45 46 47 48 49 50 51 52 53 54 55 56 57 58 59 60 61 62 63 64 65 66 67 68 69 70 71 72 73 74 75 76 77 78 79 := 
		0 0 0 32 0 0 0 0 0 0 0 0 0 0 0 0 0 0 0 0 0 0 0 0 0 0 0 0 0 0 0 0 0 0 0 21 0 31 0 0 0 0 0 39 0 0 0 0 0 39 20 0 0 0 0 0 0 0 0 0 0 0 0 0 0 0 0 0 0 0 0 0 0 22 0 36 0 0 35 0 0 
		1 0 0 0 0 0 0 0 0 0 0 0 0 0 0 0 0 0 0 30 33 0 0 0 39 0 0 0 0 35 0 0 0 0 22 0 0 0 0 0 0 0 0 40 0 0 0 0 0 0 39 40 0 0 0 0 0 35 0 0 0 0 0 0 0 0 26 0 0 0 0 0 0 32 0 0 0 0 24 35 0 
		2 32 0 0 0 0 0 0 0 0 0 0 0 0 39 20 0 0 0 0 0 0 27 0 0 39 35 0 0 0 0 37 0 0 0 0 0 0 0 0 0 0 0 25 0 0 29 0 0 0 0 0 0 0 0 0 0 0 27 0 0 0 0 0 36 0 0 0 0 0 0 0 0 0 0 0 0 0 0 0 0 
		3 0 0 0 0 0 0 0 0 0 23 35 0 21 0 0 0 0 31 0 0 0 0 0 0 0 0 0 0 0 0 0 0 0 0 0 0 22 0 0 0 0 0 0 0 0 0 0 0 0 0 0 0 0 0 0 0 0 0 0 26 23 0 0 0 0 0 0 0 0 0 0 0 0 0 0 21 0 0 0 0 
		4 0 0 0 0 0 0 0 28 0 0 0 39 0 0 0 0 0 0 0 0 0 0 0 0 0 0 0 0 0 0 0 0 21 37 0 0 0 0 0 0 0 0 0 0 0 0 0 0 0 0 0 25 0 0 38 27 0 0 0 0 0 0 0 0 28 30 22 0 0 0 0 0 0 0 0 31 0 0 0 37 
		5 0 0 0 0 0 0 0 0 0 0 0 0 0 0 0 0 0 0 0 0 0 0 0 0 0 0 0 0 31 0 0 0 0 0 0 0 0 0 0 0 0 0 0 0 0 25 0 0 0 0 0 24 0 0 37 0 0 0 0 0 0 27 0 0 0 0 0 0 0 0 22 0 0 0 0 0 39 21 0 0 
		6 0 0 0 0 0 0 0 0 0 38 0 0 0 0 0 0 0 0 0 0 0 0 0 0 0 0 0 0 35 0 0 0 0 0 0 0 0 40 0 0 0 0 0 0 0 0 0 0 0 0 0 0 0 0 25 0 0 0 0 0 27 0 0 0 0 0 0 0 0 0 0 0 0 0 0 0 23 0 0 0 
		7 0 0 0 0 28 0 0 0 0 0 0 0 0 0 0 0 0 0 0 0 0 0 0 0 0 0 0 0 37 0 31 0 0 0 0 0 0 39 0 0 0 0 34 0 40 28 0 26 0 0 0 36 0 0 0 0 0 0 0 0 37 0 0 0 0 0 39 0 0 0 0 0 0 0 0 0 0 0 0 0 
		8 0 0 0 0 0 0 0 0 0 0 0 0 0 0 0 0 0 0 0 31 23 27 0 37 0 0 0 0 0 0 0 0 0 0 0 0 0 0 0 0 24 0 25 0 0 0 31 29 0 0 0 0 0 29 0 0 0 0 31 0 0 0 0 0 0 0 0 0 0 0 0 0 0 0 0 0 0 32 0 0 
		9 0 0 0 23 0 0 38 0 0 0 0 0 0 0 0 0 0 0 0 0 0 26 22 0 0 0 0 21 0 0 0 0 0 23 0 0 0 0 0 0 0 0 23 0 36 0 0 0 0 0 0 38 0 0 0 0 0 0 22 0 0 0 0 0 0 0 0 0 0 0 0 0 0 25 0 40 0 0 0 0 
		10 0 0 0 35 0 0 0 0 0 0 0 0 0 0 0 0 0 0 0 0 0 0 22 0 0 25 0 0 0 0 0 0 0 0 0 0 21 0 0 0 0 0 0 0 0 0 0 0 0 0 0 27 0 0 0 0 0 0 0 0 0 0 0 0 0 0 0 0 0 0 25 0 35 0 0 0 0 0 32 0 
		11 0 0 0 0 39 0 0 0 0 0 0 0 0 0 0 0 0 0 0 0 0 0 0 0 0 0 0 0 0 0 0 26 0 0 0 0 0 0 0 0 0 0 0 0 0 0 0 0 0 0 0 0 0 0 0 0 0 0 0 0 0 0 0 36 0 0 0 0 0 0 0 0 0 0 0 34 0 0 0 0 
		12 0 0 0 21 0 0 0 0 0 0 0 0 0 0 0 0 0 0 0 0 0 0 22 0 0 0 0 0 0 0 0 0 21 0 0 0 0 0 0 0 0 0 0 0 0 0 0 0 0 0 0 0 0 0 24 0 0 0 0 40 0 0 0 0 0 0 0 22 0 0 0 0 0 0 0 35 0 0 0 0 
		13 0 0 39 0 0 0 0 0 0 0 0 0 0 0 31 0 0 0 0 0 0 0 0 0 0 0 0 0 0 0 0 0 0 0 29 0 0 0 0 0 0 0 0 0 0 0 0 0 0 0 0 0 0 0 0 0 0 0 0 0 0 0 0 0 0 21 0 0 0 0 0 0 0 0 0 0 0 0 0 0 
		14 0 0 20 0 0 0 0 0 0 0 0 0 0 31 0 0 0 0 0 0 0 0 0 0 0 0 0 32 0 0 0 0 0 0 0 0 0 0 0 0 0 0 0 0 0 0 0 0 0 0 0 0 0 0 0 0 0 0 0 30 0 0 0 0 0 0 0 0 0 0 0 0 0 0 0 0 0 0 0 0 
		15 0 0 0 0 0 0 0 0 0 0 0 0 0 0 0 0 0 0 26 0 0 0 0 0 0 0 40 0 37 0 0 0 0 0 0 0 0 0 0 0 0 0 0 0 0 0 0 25 0 0 20 0 0 0 0 0 0 0 0 0 0 0 0 0 0 0 36 0 0 40 0 0 0 0 0 0 0 0 0 0 
		16 0 0 0 0 0 0 0 0 0 0 0 0 0 0 0 0 0 40 22 0 0 0 0 0 0 0 0 0 0 0 0 24 0 26 0 0 0 0 0 0 32 0 0 0 0 0 0 0 0 0 0 0 0 0 0 0 0 0 0 0 0 0 0 0 0 0 0 0 0 0 0 0 0 0 0 32 0 0 0 0 
		17 0 0 0 31 0 0 0 0 0 0 0 0 0 0 0 0 40 0 0 0 29 0 20 0 0 0 0 0 0 0 0 0 0 31 0 0 20 0 0 0 0 0 0 0 0 29 32 21 23 0 0 0 0 0 29 30 0 22 0 0 0 0 0 0 0 0 0 0 0 0 0 0 0 0 0 0 36 0 0 0 
		18 0 30 0 0 0 0 0 0 0 0 0 0 0 0 0 26 22 0 0 0 0 0 0 0 0 0 33 0 0 28 0 0 0 0 28 0 0 0 0 38 0 0 0 0 0 0 34 26 0 0 29 0 0 0 0 0 25 0 0 0 0 0 0 40 0 0 0 0 0 0 0 0 0 0 0 0 0 0 0 0 
		19 0 33 0 0 0 0 0 0 31 0 0 0 0 0 0 0 0 0 0 0 0 0 0 0 0 0 0 0 0 0 0 0 0 0 0 0 0 0 32 0 0 37 25 0 0 0 0 0 39 0 36 0 0 0 0 0 34 0 0 0 0 0 0 0 31 28 0 0 0 0 0 0 0 0 0 33 0 36 0 0 
		20 0 0 0 0 0 0 0 0 23 0 0 0 0 0 0 0 0 29 0 0 0 0 0 0 25 0 0 0 0 0 0 0 0 0 0 0 25 0 0 23 0 29 23 0 0 0 27 0 0 0 0 0 0 0 0 34 0 0 32 0 0 0 26 24 0 0 38 0 0 0 0 0 0 0 0 0 0 0 0 0 
		21 0 0 27 0 0 0 0 0 27 26 0 0 0 0 0 0 0 0 0 0 0 0 0 35 0 0 0 0 0 0 0 0 0 24 0 0 0 0 0 0 0 0 0 0 0 0 0 35 34 0 0 0 0 0 0 0 0 0 0 0 0 0 0 0 0 0 0 0 0 0 0 0 31 0 0 30 0 0 0 0 
		22 0 0 0 0 0 0 0 0 0 22 22 0 22 0 0 0 0 20 0 0 0 0 0 0 0 38 0 0 0 0 32 0 0 0 32 0 0 0 37 0 0 0 0 0 0 0 0 0 37 0 0 0 0 0 0 0 0 0 0 0 0 0 0 0 0 0 24 0 0 0 0 0 0 0 0 0 0 0 0 0 
		23 0 39 0 0 0 0 0 0 37 0 0 0 0 0 0 0 0 0 0 0 0 35 0 0 0 0 0 0 0 0 0 0 0 0 0 0 0 0 0 0 0 0 0 0 0 0 0 0 35 0 0 0 0 0 0 30 0 0 0 0 0 0 0 0 0 0 24 0 0 33 0 0 0 0 0 0 0 20 34 35 
		24 0 0 39 0 0 0 0 0 0 0 0 0 0 0 0 0 0 0 0 0 25 0 0 0 0 0 0 0 0 0 35 0 0 0 26 0 0 0 0 0 0 0 0 0 0 0 0 0 0 0 0 36 0 0 0 33 0 0 0 0 0 0 0 0 38 0 0 0 0 0 0 0 0 0 0 0 38 0 0 0 
		25 0 0 35 0 0 0 0 0 0 0 25 0 0 0 0 0 0 0 0 0 0 0 38 0 0 0 0 0 0 0 0 0 0 0 0 0 0 0 0 33 0 0 21 0 0 0 21 0 0 0 0 0 0 0 0 0 33 0 0 0 0 0 0 0 20 0 0 0 0 0 0 0 0 0 0 39 0 0 0 0 
		26 0 0 0 0 0 0 0 0 0 0 0 0 0 0 0 40 0 0 33 0 0 0 0 0 0 0 0 0 37 0 0 0 0 0 0 0 0 0 0 0 0 0 0 0 0 0 0 28 22 0 0 0 0 0 0 0 0 0 0 0 0 0 0 0 0 23 0 0 0 0 0 0 0 0 0 0 0 0 0 34 
		27 0 0 0 0 0 0 0 0 0 21 0 0 0 0 32 0 0 0 0 0 0 0 0 0 0 0 0 0 0 31 0 0 0 0 0 0 0 0 0 0 0 0 0 0 0 0 22 0 0 0 0 0 0 0 0 0 0 0 0 0 0 0 0 35 0 0 0 0 0 0 0 0 0 0 0 0 38 0 0 23 
		28 0 35 0 0 0 31 35 37 0 0 0 0 0 0 0 37 0 0 0 0 0 0 0 0 0 0 37 0 0 0 0 0 0 0 0 0 0 0 0 0 0 0 40 0 31 0 0 0 0 0 0 0 0 0 0 0 0 0 39 0 0 0 0 23 0 0 0 0 0 0 0 0 0 0 0 0 0 0 0 0 
		29 0 0 0 0 0 0 0 0 0 0 0 0 0 0 0 0 0 0 28 0 0 0 0 0 0 0 0 31 0 0 0 0 0 0 0 0 0 0 0 23 0 0 0 0 0 0 0 39 0 0 0 0 0 0 0 0 0 0 0 0 0 0 0 0 0 20 0 0 0 0 0 0 24 0 0 0 0 0 31 0 
		30 0 0 37 0 0 0 0 31 0 0 0 0 0 0 0 0 0 0 0 0 0 0 32 0 35 0 0 0 0 0 0 20 0 0 0 0 0 0 0 0 0 0 0 0 0 34 30 0 0 0 0 0 0 0 33 0 0 0 20 0 0 0 0 0 0 0 0 0 0 0 0 0 0 0 0 0 0 0 0 0 
		31 0 0 0 0 0 0 0 0 0 0 0 26 0 0 0 0 24 0 0 0 0 0 0 0 0 0 0 0 0 0 20 0 33 0 0 0 0 0 0 0 0 0 0 0 0 28 0 24 0 0 0 0 0 0 36 0 32 0 0 0 0 0 0 0 0 0 0 0 0 0 0 0 0 25 0 32 0 0 0 0 
		32 0 0 0 0 21 0 0 0 0 0 0 0 21 0 0 0 0 0 0 0 0 0 0 0 0 0 0 0 0 0 0 33 0 0 40 0 0 0 0 0 0 0 0 0 0 0 0 0 0 0 0 0 0 0 0 0 0 28 0 0 0 0 39 0 0 0 0 0 0 0 0 0 0 0 0 0 0 0 0 0 
		33 0 22 0 0 37 0 0 0 0 23 0 0 0 0 0 0 26 31 0 0 0 24 0 0 0 0 0 0 0 0 0 0 0 0 0 0 0 0 0 0 0 0 0 31 0 0 0 0 0 0 0 26 0 0 0 0 0 0 0 0 31 0 0 0 0 0 0 0 0 0 0 0 0 0 27 0 0 33 0 0 
		34 21 0 0 0 0 0 0 0 0 0 0 0 0 29 0 0 0 0 28 0 0 0 32 0 26 0 0 0 0 0 0 0 40 0 0 0 0 0 0 0 0 0 0 0 0 0 0 0 0 0 0 0 0 0 0 26 0 0 0 28 0 0 36 24 28 0 0 0 0 0 0 0 0 0 0 0 0 0 0 0 
		35 0 0 0 0 0 0 0 0 0 0 0 0 0 0 0 0 0 0 0 0 0 0 0 0 0 0 0 0 0 0 0 0 0 0 0 0 0 0 0 0 0 0 0 0 0 0 0 0 0 0 0 0 0 0 0 0 35 0 0 0 0 0 0 0 0 0 0 0 0 0 0 0 0 0 0 0 0 0 0 20 
		36 31 0 0 22 0 0 0 0 0 0 21 0 0 0 0 0 0 20 0 0 25 0 0 0 0 0 0 0 0 0 0 0 0 0 0 0 0 0 0 0 0 0 28 0 0 0 0 0 0 0 0 0 0 0 0 0 0 0 0 0 0 0 0 0 0 0 0 0 36 0 0 0 0 0 0 0 0 0 0 0 
		37 0 0 0 0 0 0 40 39 0 0 0 0 0 0 0 0 0 0 0 0 0 0 0 0 0 0 0 0 0 0 0 0 0 0 0 0 0 0 0 0 37 0 0 0 0 0 0 0 0 0 0 0 0 0 0 0 0 0 0 0 22 0 0 0 0 0 0 0 0 0 0 0 0 0 0 0 0 0 0 32 
		38 0 0 0 0 0 0 0 0 0 0 0 0 0 0 0 0 0 0 0 32 0 0 37 0 0 0 0 0 0 0 0 0 0 0 0 0 0 0 0 0 0 0 0 0 0 0 0 0 0 0 32 0 0 0 0 0 35 0 0 0 0 0 0 0 0 0 0 0 0 0 0 0 0 0 0 0 0 0 0 0 
		39 0 0 0 0 0 0 0 0 0 0 0 0 0 0 0 0 0 0 38 0 23 0 0 0 0 33 0 0 0 23 0 0 0 0 0 0 0 0 0 0 0 0 0 0 20 0 0 0 0 0 0 0 0 0 0 0 0 0 0 20 0 0 0 0 22 0 0 0 0 27 0 0 0 0 0 0 20 25 0 0 
		40 0 0 0 0 0 0 0 0 24 0 0 0 0 0 0 0 32 0 0 0 0 0 0 0 0 0 0 0 0 0 0 0 0 0 0 0 0 37 0 0 0 0 0 0 0 0 0 0 0 0 0 0 0 0 0 0 0 0 0 0 0 37 0 0 0 0 0 0 0 0 35 0 0 0 0 0 33 0 0 0 
		41 0 0 0 0 0 0 0 0 0 0 0 0 0 0 0 0 0 0 0 37 29 0 0 0 0 0 0 0 0 0 0 0 0 0 0 0 0 0 0 0 0 0 0 0 0 0 0 0 0 0 0 0 0 26 0 23 30 0 0 0 0 0 0 0 0 0 0 0 0 0 0 0 0 0 0 0 0 0 0 0 
		42 39 40 25 0 0 0 0 34 25 23 0 0 0 0 0 0 0 0 0 25 23 0 0 0 0 21 0 0 40 0 0 0 0 0 0 0 28 0 0 0 0 0 0 0 0 0 0 0 0 0 0 0 0 0 0 0 38 0 0 0 0 0 0 0 34 0 0 0 0 0 0 0 37 0 0 0 0 29 0 0 
		43 0 0 0 0 0 0 0 0 0 0 0 0 0 0 0 0 0 0 0 0 0 0 0 0 0 0 0 0 0 0 0 0 0 31 0 0 0 0 0 0 0 0 0 0 0 0 0 0 0 0 0 0 0 35 0 0 0 0 0 0 0 0 0 0 0 0 0 0 0 0 0 0 0 0 0 0 0 0 0 0 
		44 0 0 0 0 0 0 0 40 0 36 0 0 0 0 0 0 0 0 0 0 0 0 0 0 0 0 0 0 31 0 0 0 0 0 0 0 0 0 0 20 0 0 0 0 0 0 0 0 0 0 0 0 26 0 0 0 0 0 0 0 22 0 32 0 0 0 0 0 0 0 0 29 0 0 0 0 0 0 0 0 
		45 0 0 29 0 0 25 0 28 0 0 0 0 0 0 0 0 0 29 0 0 0 0 0 0 0 0 0 0 0 0 34 28 0 0 0 0 0 0 0 0 0 0 0 0 0 0 0 0 0 0 0 24 0 0 0 0 0 0 0 0 0 0 0 0 0 0 0 0 0 0 0 0 0 0 0 0 0 0 0 0 
		46 0 0 0 0 0 0 0 0 31 0 0 0 0 0 0 0 0 32 34 0 27 0 0 0 0 21 0 22 0 0 30 0 0 0 0 0 0 0 0 0 0 0 0 0 0 0 0 0 0 0 0 36 0 0 0 0 0 0 0 0 0 0 0 0 0 36 0 0 0 0 0 0 0 0 0 0 0 0 0 0 
		47 0 0 0 0 0 0 0 26 29 0 0 0 0 0 0 25 0 21 26 0 0 35 0 0 0 0 28 0 0 39 0 24 0 0 0 0 0 0 0 0 0 0 0 0 0 0 0 0 0 0 31 0 0 37 0 0 0 27 0 0 35 0 0 34 30 31 31 0 0 0 0 0 0 0 26 0 0 0 0 0 
		48 39 0 0 0 0 0 0 0 0 0 0 0 0 0 0 0 0 23 0 39 0 34 37 35 0 0 22 0 0 0 0 0 0 0 0 0 0 0 0 0 0 0 0 0 0 0 0 0 0 0 0 0 0 0 0 0 0 0 0 0 0 0 0 0 31 0 0 0 0 0 0 0 0 0 0 0 0 0 0 0 
		49 20 39 0 0 0 0 0 0 0 0 0 0 0 0 0 0 0 0 0 0 0 0 0 0 0 0 0 0 0 0 0 0 0 0 0 0 0 0 0 0 0 0 0 0 0 0 0 0 0 0 0 0 28 0 0 0 0 0 20 0 0 0 0 0 36 0 20 0 0 0 28 23 0 0 0 0 0 0 0 0 
		50 0 40 0 0 0 0 0 0 0 0 0 0 0 0 0 20 0 0 29 36 0 0 0 0 0 0 0 0 0 0 0 0 0 0 0 0 0 0 32 0 0 0 0 0 0 0 0 31 0 0 0 0 0 27 0 0 0 0 0 0 0 0 0 0 0 0 0 0 0 0 0 0 0 0 0 28 0 40 0 21 
		51 0 0 0 0 25 24 0 36 0 38 27 0 0 0 0 0 0 0 0 0 0 0 0 0 36 0 0 0 0 0 0 0 0 26 0 0 0 0 0 0 0 0 0 0 0 24 36 0 0 0 0 0 0 39 0 0 0 0 0 0 0 0 0 0 0 0 0 0 0 0 0 0 0 27 0 0 0 0 0 40 
		52 0 0 0 0 0 0 0 0 0 0 0 0 0 0 0 0 0 0 0 0 0 0 0 0 0 0 0 0 0 0 0 0 0 0 0 0 0 0 0 0 0 0 0 0 26 0 0 0 0 28 0 0 0 0 0 0 0 27 0 0 0 0 0 0 0 0 0 0 0 0 0 23 0 36 0 0 0 0 0 25 
		53 0 0 0 0 0 0 0 0 29 0 0 0 0 0 0 0 0 0 0 0 0 0 0 0 0 0 0 0 0 0 0 0 0 0 0 0 0 0 0 0 0 26 0 35 0 0 0 37 0 0 27 39 0 0 0 0 0 0 39 0 0 0 0 0 0 0 0 0 0 0 0 0 0 0 0 0 32 0 0 23 
		54 0 0 0 0 38 37 25 0 0 0 0 0 24 0 0 0 0 29 0 0 0 0 0 0 0 0 0 0 0 0 33 36 0 0 0 0 0 0 0 0 0 0 0 0 0 0 0 0 0 0 0 0 0 0 0 30 0 0 0 0 0 0 0 0 0 0 0 0 0 0 34 0 0 0 0 0 39 0 0 0 
		55 0 0 0 0 27 0 0 0 0 0 0 0 0 0 0 0 0 30 0 0 34 0 0 30 33 0 0 0 0 0 0 0 0 0 26 0 0 0 0 0 0 23 0 0 0 0 0 0 0 0 0 0 0 0 30 0 0 0 0 0 30 0 0 0 38 0 0 0 0 0 0 0 0 0 0 0 0 0 0 0 
		56 0 35 0 0 0 0 0 0 0 0 0 0 0 0 0 0 0 0 25 34 0 0 0 0 0 33 0 0 0 0 0 32 0 0 0 35 0 0 35 0 0 30 38 0 0 0 0 0 0 0 0 0 0 0 0 0 0 0 0 0 0 0 0 0 23 29 0 0 0 32 0 0 0 0 0 0 0 0 0 0 
		57 0 0 27 0 0 0 0 0 0 0 0 0 0 0 0 0 0 22 0 0 0 0 0 0 0 0 0 0 0 0 0 0 28 0 0 0 0 0 0 0 0 0 0 0 0 0 0 27 0 0 0 0 27 0 0 0 0 0 0 0 0 0 0 36 0 0 0 0 0 0 0 0 0 0 0 0 0 0 0 0 
		58 0 0 0 0 0 0 0 0 31 22 0 0 0 0 0 0 0 0 0 0 32 0 0 0 0 0 0 0 39 0 20 0 0 0 0 0 0 0 0 0 0 0 0 0 0 0 0 0 0 20 0 0 0 39 0 0 0 0 0 0 0 0 0 0 0 28 0 0 0 0 0 0 0 0 0 21 0 20 0 0 
		59 0 0 0 26 0 0 0 0 0 0 0 0 40 0 30 0 0 0 0 0 0 0 0 0 0 0 0 0 0 0 0 0 0 0 28 0 0 0 0 20 0 0 0 0 0 0 0 0 0 0 0 0 0 0 0 0 0 0 0 0 0 0 0 0 0 0 0 0 0 0 0 0 0 0 0 0 0 0 0 0 
		60 0 0 0 23 0 0 27 37 0 0 0 0 0 0 0 0 0 0 0 0 0 0 0 0 0 0 0 0 0 0 0 0 0 31 0 0 0 22 0 0 0 0 0 0 22 0 0 35 0 0 0 0 0 0 0 30 0 0 0 0 0 0 0 30 0 0 0 0 0 0 0 0 0 0 0 0 0 0 0 0 
		61 0 0 0 0 0 27 0 0 0 0 0 0 0 0 0 0 0 0 0 0 0 0 0 0 0 0 0 0 0 0 0 0 0 0 0 0 0 0 0 0 37 0 0 0 0 0 0 0 0 0 0 0 0 0 0 0 0 0 0 0 0 0 31 0 0 0 0 0 0 0 0 0 0 31 0 0 0 0 0 0 
		62 0 0 0 0 0 0 0 0 0 0 0 0 0 0 0 0 0 0 0 0 26 0 0 0 0 0 0 0 0 0 0 0 39 0 36 0 0 0 0 0 0 0 0 0 32 0 0 0 0 0 0 0 0 0 0 0 0 0 0 0 0 31 0 0 0 0 0 0 24 0 0 0 0 0 0 0 0 0 0 0 
		63 0 0 36 0 0 0 0 0 0 0 0 36 0 0 0 0 0 0 40 0 24 0 0 0 0 0 0 35 23 0 0 0 0 0 24 0 0 0 0 0 0 0 0 0 0 0 0 34 0 0 0 0 0 0 0 0 0 36 0 0 30 0 0 0 28 0 0 0 0 0 0 0 0 25 0 36 0 0 39 0 
		64 0 0 0 0 28 0 0 0 0 0 0 0 0 0 0 0 0 0 0 31 0 0 0 0 38 20 0 0 0 0 0 0 0 0 28 0 0 0 0 22 0 0 34 0 0 0 0 30 31 36 0 0 0 0 0 38 23 0 0 0 0 0 0 28 0 35 20 0 0 23 0 0 0 0 0 0 0 34 0 0 
		65 0 26 0 0 30 0 0 0 0 0 0 0 0 21 0 0 0 0 0 28 0 0 0 0 0 0 23 0 0 20 0 0 0 0 0 0 0 0 0 0 0 0 0 0 0 0 36 31 0 0 0 0 0 0 0 0 29 0 28 0 0 0 0 0 35 0 0 0 0 0 0 0 0 0 0 0 0 0 0 0 
		66 0 0 0 0 22 0 0 39 0 0 0 0 0 0 0 36 0 0 0 0 38 0 24 24 0 0 0 0 0 0 0 0 0 0 0 0 0 0 0 0 0 0 0 0 0 0 0 31 0 20 0 0 0 0 0 0 0 0 0 0 0 0 0 0 20 0 0 0 0 0 0 0 0 0 0 0 0 0 0 0 
		67 0 0 0 0 0 0 0 0 0 0 0 0 22 0 0 0 0 0 0 0 0 0 0 0 0 0 0 0 0 0 0 0 0 0 0 0 0 0 0 0 0 0 0 0 0 0 0 0 0 0 0 0 0 0 0 0 0 0 0 0 0 0 0 0 0 0 0 0 0 32 0 0 0 0 0 0 0 0 0 0 
		68 0 0 0 0 0 0 0 0 0 0 0 0 0 0 0 0 0 0 0 0 0 0 0 0 0 0 0 0 0 0 0 0 0 0 0 0 36 0 0 0 0 0 0 0 0 0 0 0 0 0 0 0 0 0 0 0 0 0 0 0 0 0 24 0 0 0 0 0 0 0 0 0 0 0 0 0 0 0 0 0 
		69 0 0 0 0 0 0 0 0 0 0 0 0 0 0 0 40 0 0 0 0 0 0 0 33 0 0 0 0 0 0 0 0 0 0 0 0 0 0 0 27 0 0 0 0 0 0 0 0 0 0 0 0 0 0 0 0 32 0 0 0 0 0 0 0 23 0 0 32 0 0 0 0 0 0 26 0 0 0 0 0 
		70 0 0 0 0 0 22 0 0 0 0 25 0 0 0 0 0 0 0 0 0 0 0 0 0 0 0 0 0 0 0 0 0 0 0 0 0 0 0 0 0 35 0 0 0 0 0 0 0 0 28 0 0 0 0 34 0 0 0 0 0 0 0 0 0 0 0 0 0 0 0 0 36 0 0 0 0 0 0 0 0 
		71 0 0 0 0 0 0 0 0 0 0 0 0 0 0 0 0 0 0 0 0 0 0 0 0 0 0 0 0 0 0 0 0 0 0 0 0 0 0 0 0 0 0 0 0 29 0 0 0 0 23 0 0 23 0 0 0 0 0 0 0 0 0 0 0 0 0 0 0 0 0 36 0 0 0 0 0 28 0 0 0 
		72 22 32 0 0 0 0 0 0 0 0 35 0 0 0 0 0 0 0 0 0 0 31 0 0 0 0 0 0 0 24 0 0 0 0 0 0 0 0 0 0 0 0 37 0 0 0 0 0 0 0 0 0 0 0 0 0 0 0 0 0 0 0 0 0 0 0 0 0 0 0 0 0 0 0 0 30 0 0 0 0 
		73 0 0 0 0 0 0 0 0 0 25 0 0 0 0 0 0 0 0 0 0 0 0 0 0 0 0 0 0 0 0 0 25 0 0 0 0 0 0 0 0 0 0 0 0 0 0 0 0 0 0 0 27 36 0 0 0 0 0 0 0 0 31 0 25 0 0 0 0 0 0 0 0 0 0 0 0 0 0 0 0 
		74 36 0 0 0 0 0 0 0 0 0 0 0 0 0 0 0 0 0 0 0 0 0 0 0 0 0 0 0 0 0 0 0 0 27 0 0 0 0 0 0 0 0 0 0 0 0 0 26 0 0 0 0 0 0 0 0 0 0 0 0 0 0 0 0 0 0 0 0 0 26 0 0 0 0 0 0 0 0 0 0 
		75 0 0 0 21 31 0 0 0 0 40 0 34 35 0 0 0 32 0 0 33 0 30 0 0 0 39 0 0 0 0 0 32 0 0 0 0 0 0 0 0 0 0 0 0 0 0 0 0 0 0 28 0 0 0 0 0 0 0 21 0 0 0 0 36 0 0 0 0 0 0 0 0 30 0 0 0 37 0 0 0 
		76 0 0 0 0 0 39 23 0 0 0 0 0 0 0 0 0 0 36 0 0 0 0 0 0 38 0 0 38 0 0 0 0 0 0 0 0 0 0 0 20 33 0 0 0 0 0 0 0 0 0 0 0 0 32 39 0 0 0 0 0 0 0 0 0 0 0 0 0 0 0 0 28 0 0 0 37 0 0 0 0 
		77 35 24 0 0 0 21 0 0 32 0 0 0 0 0 0 0 0 0 0 36 0 0 0 20 0 0 0 0 0 0 0 0 0 33 0 0 0 0 0 25 0 0 29 0 0 0 0 0 0 0 40 0 0 0 0 0 0 0 20 0 0 0 0 0 34 0 0 0 0 0 0 0 0 0 0 0 0 0 0 0 
		78 0 35 0 0 0 0 0 0 0 0 32 0 0 0 0 0 0 0 0 0 0 0 0 34 0 0 0 0 0 31 0 0 0 0 0 0 0 0 0 0 0 0 0 0 0 0 0 0 0 0 0 0 0 0 0 0 0 0 0 0 0 0 0 39 0 0 0 0 0 0 0 0 0 0 0 0 0 0 0 0 
		79 0 0 0 0 37 0 0 0 0 0 0 0 0 0 0 0 0 0 0 0 0 0 0 35 0 0 34 23 0 0 0 0 0 0 0 20 0 32 0 0 0 0 0 0 0 0 0 0 0 0 21 40 25 23 0 0 0 0 0 0 0 0 0 0 0 0 0 0 0 0 0 0 0 0 0 0 0 0 0 0 
;
